#
# POM alpha
#

! PBE def2-SVP 
! OPT

%geom
Constraints
{C 37 C}
{C 19 C}
{C 45 C}
{C 9 C}
{C 4 C}
{C 31 C}
{C 36 C}
{C 18 C}
{C 44 C}
{C 8 C}
{C 3 C}
{C 30 C}
{C 39 C}
{C 33 C}
{C 41 C}
{C 47 C}
{C 49 C}
{C 51 C}
{C 40 C}
{C 46 C}
{C 48 C}
{C 50 C}
{C 32 C}
{C 38 C}
{C 43 C}
{C 35 C}
{C 53 C}
{C 34 C}
{C 42 C}
{C 52 C}
{C 11 C}
{C 6 C}
{C 2 C}
end
end


* internal 0 2
W 0 0 0 0.0000000 0.0000000 0.0000000
O 1 0 0 1.9023655 0.0000000 0.0000000
W 2 1 0 1.9505804 151.17170 0.0000000
O 3 2 1 2.0800000 163.52662 49.436172
H 4 3 2 1.0500000 109.47122 -67.431207
O 3 2 1 1.9017524 85.819681 -28.957174
W 6 3 2 1.9320984 148.84473 33.497966
O 1 2 3 1.9222352 87.894978 26.573158
O 7 6 3 2.0800000 88.601750 130.48232
H 9 7 6 1.0500000 109.47122 -6.9133555
O 7 6 3 1.8917836 162.17778 47.978832
W 11 7 6 1.9162868 121.63680 3.5516776
O 12 11 7 1.9316650 88.912092 -84.788170
W 13 12 11 1.8914734 152.41461 130.60116
O 1 2 3 1.9331605 158.81453 -44.779018
O 14 13 12 1.9253103 85.677758 27.610478
W 16 14 13 1.9164836 149.80493 -26.675820
O 12 11 7 1.9043570 158.12363 -10.940016
O 17 16 14 2.0800000 165.55024 -45.784468
H 19 17 16 1.0500000 109.47122 68.370580
O 17 16 14 1.9072730 90.767835 -131.75513
W 21 17 16 1.9101691 120.80304 85.021468
O 22 21 17 1.9451782 88.596313 -83.889464
W 23 22 21 1.8807224 151.51611 133.20292
O 1 2 3 1.9167644 90.995277 -130.04304
O 14 13 12 1.9535799 156.81299 -43.155613
O 24 23 22 1.9408208 86.441640 25.125723
W 27 24 23 1.8975320 150.26715 -24.777161
O 3 2 1 1.9183263 88.016405 128.06802
O 22 21 17 1.8973584 157.90598 -9.5081102
O 28 27 24 2.0800000 164.89439 -40.763658
H 31 28 27 1.0500000 109.47122 61.002827
O 28 27 24 2.0800000 100.02021 126.59744
H 33 28 27 1.0500000 109.47122 100.76735
O 24 23 22 2.0800000 103.51791 127.51281
H 35 24 23 1.0500000 109.47122 -142.66195
O 22 21 17 2.0800000 90.912131 81.262782
H 37 22 21 1.0500000 109.47122 -151.39398
O 22 21 17 2.0800000 101.50471 179.22692
H 39 22 21 1.0500000 109.47122 -168.00133
O 17 16 14 2.0800000 96.387313 128.64263
H 41 17 16 1.0500000 109.47122 107.70174
O 14 13 12 2.0800000 102.20730 129.25269
H 43 14 13 1.0500000 109.47122 59.397401
O 12 11 7 2.0800000 90.343821 79.192859
H 45 12 11 1.0500000 109.47122 -157.54918
O 12 11 7 2.0800000 99.155191 178.13253
H 47 12 11 1.0500000 109.47122 -16.418184
O 7 6 3 2.0800000 100.65850 -130.99338
H 49 7 6 1.0500000 109.47122 -0.7359218
O 3 2 1 2.0800000 97.903411 -130.10795
H 51 3 2 1.0500000 109.47122 126.17088
O 1 2 3 2.0800000 100.07699 128.31675
H 53 1 2 1.0500000 109.47122 -31.516749
*
